NAME: pr226
COMMENT: Quick (5min) local search tour for pr226 (87047.17900622077)
TYPE: TOUR
DIMENSION: 226
TOUR_SECTION: 1 73 74 75 76 77 78 79 80 81 82 83 84 85 86 111 104 106 107 108 109 110 118 117 116 115 114 113 112 103 105 136 135 134 133 131 129 127 128 126 119 120 121 122 123 124 130 132 125 226 225 224 223 222 221 220 219 218 217 216 215 214 213 212 211 210 209 208 207 206 205 204 203 202 201 200 199 198 197 196 195 194 193 192 191 190 189 188 187 186 185 184 183 182 181 180 179 178 177 176 175 174 173 172 171 170 169 168 167 166 165 164 163 162 161 160 159 158 155 156 157 154 153 152 151 144 146 145 147 149 148 150 143 142 141 140 139 138 137 91 92 93 94 102 101 100 99 98 97 96 95 90 88 89 87 41 40 43 42 39 38 37 36 44 45 46 47 49 28 48 33 32 31 35 34 30 29 27 26 25 24 23 22 21 50 54 55 56 57 58 59 60 61 62 63 64 53 52 51 20 67 68 69 70 66 65 19 18 15 14 10 9 7 6 5 4 3 2 8 17 16 11 12 13 71 72 -1
EOF